p ocr 101 99 279
1 102
1 169
1 171
2 103
2 171
3 103
3 105
3 143
4 103
4 143
5 103
5 104
5 105
6 105
6 106
6 107
6 108
6 109
6 110
6 117
6 182
7 110
7 111
8 111
9 111
9 129
10 111
10 145
11 111
12 111
12 112
13 112
14 112
15 112
15 113
15 114
15 115
15 155
15 184
15 187
15 192
16 110
16 115
17 115
17 138
18 115
18 116
18 117
18 137
19 117
20 117
20 118
20 119
20 120
20 177
20 178
21 120
21 121
21 130
21 135
21 155
22 122
22 135
22 156
22 158
23 122
23 123
23 161
24 123
25 121
25 123
25 141
25 143
25 157
26 123
27 123
27 124
27 125
27 146
28 125
28 197
29 125
29 126
29 127
29 162
30 127
31 122
31 127
31 128
31 133
31 163
32 128
32 173
33 128
34 128
34 131
35 128
36 128
36 149
37 128
37 129
37 129
37 130
37 132
38 131
38 132
38 133
38 134
38 136
39 136
39 150
40 127
40 135
40 136
40 195
41 136
41 137
41 198
42 137
42 139
43 139
44 139
45 138
45 139
45 159
45 196
46 138
47 138
47 140
47 142
47 148
48 141
48 142
48 144
48 172
49 144
50 144
51 144
51 145
52 115
52 144
53 144
54 143
54 144
54 146
55 143
55 147
56 147
56 148
57 148
57 149
58 149
59 149
59 151
60 137
60 149
60 151
60 160
60 192
61 151
61 164
62 150
62 151
62 152
62 153
62 154
62 157
63 157
64 123
64 155
64 157
65 157
66 143
66 156
66 157
66 173
67 157
67 159
68 139
68 157
68 160
68 161
68 163
68 186
69 163
69 165
69 188
70 158
70 165
71 165
71 184
71 185
72 145
72 162
72 164
72 165
72 166
72 167
72 168
72 170
72 174
73 133
73 169
73 170
74 155
74 160
74 163
74 170
74 175
75 174
75 175
75 176
75 183
76 176
77 171
77 172
77 173
77 176
78 173
78 177
79 177
79 179
80 130
80 179
80 180
81 128
81 180
82 180
83 171
83 180
84 175
84 178
84 180
85 180
85 181
86 181
86 183
87 182
87 183
87 185
88 184
88 185
89 135
89 185
90 185
90 187
91 186
91 187
92 187
93 184
93 187
93 189
94 174
94 179
94 188
94 189
94 190
95 190
95 191
95 193
96 193
97 161
97 176
97 192
97 193
97 194
98 123
98 159
98 192
98 196
99 195
99 196
99 198
100 197
100 198
100 199
101 139
101 199
101 200
